%%% static parameters %%%
timespan = 1;
Fact = [4];
Distr1 = [15];
Distr2 = [30];
Clients_N = [1000];
Demand_W = [15];
Lt0 = [4];
Lt1 = [4];
SS_ = [0.85];
DS_D = [8];
K = [200];
MA = [500];
%%% dynamic parameters %%%
lost_ratio_sales_ret_th = 0.49463880539212;
lost_ratio_sales_ret_w = 29;
lost_ratio_sales_dis_th = 0.04052710747845312;
lost_ratio_sales_dis_w = 21;
lost_ratio_sales_fac_th = 0.47717794734830765;
lost_ratio_sales_fac_w = 12;
stock_customer_MA_mean_relative_th = 0.4697608147477764;
stock_customer_MA_mean_relative_w = 12;
stock_distributor_MA_mean_relative_th = 0.057250083380126715;
stock_distributor_MA_mean_relative_w = 13;
stock_retailer_MA_mean_relative_th = 0.8182484779154745;
stock_retailer_MA_mean_relative_w = 87;
stock_factory_MA_mean_relative_th = 0.3561107734524277;
stock_factory_MA_mean_relative_w = 61;
